RSW02
Position Depot: Center
Horizon for Depot: Small
Position of customers: Random
Distribution of the demand: Small
Width of time windows: Wide
Distribution of the service: Large

VEHICLE 
NUMBER 	 CAPACITY 
 12 	 	 31 
 
CUSTOMER
CUST NO. 	 XCOORD.  	 YCOORD. 	 DEMAND 	 READY TIME 	 DUE DATE 	 SERVICE TIME 
 0 	 	 500 	 	 500 	 	 0 	 	 0 	 	 1630 	 	 0 
  1 	 	 793 	 	 34 	 	 9 	 	 399 	 	 738 	 	 145 
  2 	 	 7 	 	 920 	 	 6 	 	 1332 	 	 1536 	 	 108 
  3 	 	 817 	 	 467 	 	 10 	 	 684 	 	 1087 	 	 139 
  4 	 	 701 	 	 136 	 	 8 	 	 680 	 	 1064 	 	 200 
  5 	 	 458 	 	 358 	 	 7 	 	 825 	 	 1120 	 	 134 
  6 	 	 8 	 	 318 	 	 6 	 	 1309 	 	 1536 	 	 163 
  7 	 	 61 	 	 802 	 	 5 	 	 149 	 	 586 	 	 100 
  8 	 	 999 	 	 805 	 	 10 	 	 376 	 	 643 	 	 191 
  9 	 	 401 	 	 824 	 	 10 	 	 1064 	 	 1462 	 	 128 
  10 	 	 607 	 	 872 	 	 9 	 	 419 	 	 712 	 	 192 
  11 	 	 223 	 	 165 	 	 5 	 	 487 	 	 864 	 	 111 
  12 	 	 124 	 	 954 	 	 9 	 	 344 	 	 648 	 	 142 
  13 	 	 814 	 	 573 	 	 9 	 	 796 	 	 1038 	 	 155 
  14 	 	 585 	 	 364 	 	 6 	 	 244 	 	 496 	 	 145 
  15 	 	 879 	 	 189 	 	 10 	 	 890 	 	 1130 	 	 158 
  16 	 	 441 	 	 223 	 	 5 	 	 -17 	 	 311 	 	 142 
  17 	 	 401 	 	 859 	 	 7 	 	 1007 	 	 1374 	 	 155 
  18 	 	 529 	 	 635 	 	 9 	 	 1215 	 	 1451 	 	 124 
  19 	 	 914 	 	 421 	 	 7 	 	 851 	 	 1305 	 	 144 
  20 	 	 709 	 	 122 	 	 8 	 	 572 	 	 776 	 	 128 
  21 	 	 976 	 	 311 	 	 8 	 	 1232 	 	 1503 	 	 124 
  22 	 	 284 	 	 722 	 	 9 	 	 1149 	 	 1372 	 	 120 
  23 	 	 863 	 	 593 	 	 7 	 	 156 	 	 412 	 	 134 
  24 	 	 653 	 	 603 	 	 5 	 	 125 	 	 610 	 	 157 
  25 	 	 583 	 	 930 	 	 6 	 	 749 	 	 1169 	 	 106 
  26 	 	 144 	 	 504 	 	 7 	 	 855 	 	 1204 	 	 195 
  27 	 	 384 	 	 924 	 	 5 	 	 947 	 	 1370 	 	 116 
  28 	 	 701 	 	 713 	 	 9 	 	 267 	 	 686 	 	 162 
  29 	 	 64 	 	 604 	 	 10 	 	 504 	 	 976 	 	 166 
  30 	 	 189 	 	 63 	 	 10 	 	 293 	 	 590 	 	 102 
  31 	 	 355 	 	 243 	 	 6 	 	 1161 	 	 1630 	 	 167 
  32 	 	 665 	 	 420 	 	 9 	 	 707 	 	 991 	 	 200 
  33 	 	 240 	 	 0 	 	 6 	 	 809 	 	 1281 	 	 107 
  34 	 	 671 	 	 159 	 	 9 	 	 207 	 	 419 	 	 118 
  35 	 	 557 	 	 272 	 	 6 	 	 553 	 	 923 	 	 193 
  36 	 	 141 	 	 96 	 	 7 	 	 654 	 	 1036 	 	 176 
  37 	 	 890 	 	 43 	 	 9 	 	 226 	 	 660 	 	 104 
  38 	 	 748 	 	 651 	 	 7 	 	 460 	 	 813 	 	 186 
  39 	 	 978 	 	 759 	 	 8 	 	 429 	 	 826 	 	 161 
  40 	 	 301 	 	 688 	 	 5 	 	 1095 	 	 1300 	 	 191 
  41 	 	 108 	 	 434 	 	 5 	 	 295 	 	 558 	 	 180 
  42 	 	 9 	 	 251 	 	 8 	 	 297 	 	 605 	 	 143 
  43 	 	 219 	 	 930 	 	 7 	 	 366 	 	 804 	 	 159 
  44 	 	 713 	 	 571 	 	 9 	 	 1170 	 	 1630 	 	 126 
  45 	 	 712 	 	 473 	 	 8 	 	 63 	 	 278 	 	 109 
  46 	 	 991 	 	 308 	 	 10 	 	 1058 	 	 1488 	 	 126 
  47 	 	 737 	 	 302 	 	 8 	 	 177 	 	 579 	 	 148 
  48 	 	 864 	 	 872 	 	 10 	 	 791 	 	 1104 	 	 131 
  49 	 	 943 	 	 505 	 	 5 	 	 430 	 	 767 	 	 160 
  50 	 	 505 	 	 916 	 	 7 	 	 1374 	 	 1630 	 	 175 
 